NAME          
ROWS
 N  OBJ
 L  c1
 L  c2
COLUMNS
    MARKER    'MARKER'                 'INTORG'
    x[1]      c1        973
    x[1]      c2        294
    x[1]      OBJ       -271
    x[2]      c1        742
    x[2]      c2        603
    x[2]      OBJ       -462
    x[3]      c1        853
    x[3]      c2        702
    x[3]      OBJ       -407
    x[4]      c1        856
    x[4]      c2        923
    x[4]      OBJ       -277
    x[5]      c1        617
    x[5]      c2        429
    x[5]      OBJ       -652
    x[6]      c1        789
    x[6]      c2        621
    x[6]      OBJ       -82
    x[7]      c1        951
    x[7]      c2        832
    x[7]      OBJ       -604
    x[8]      c1        765
    x[8]      c2        645
    x[8]      OBJ       -869
    x[9]      c1        739
    x[9]      c2        752
    x[9]      OBJ       -487
    x[10]     c1        964
    x[10]     c2        152
    x[10]     OBJ       -282
    x[11]     c1        439
    x[11]     c2        207
    x[11]     OBJ       -868
    x[12]     c1        171
    x[12]     c2        107
    x[12]     OBJ       -740
    x[13]     c1        698
    x[13]     c2        571
    x[13]     OBJ       -29
    x[14]     c1        714
    x[14]     c2        728
    x[14]     OBJ       -591
    x[15]     c1        419
    x[15]     c2        344
    x[15]     OBJ       -325
    x[16]     c1        99
    x[16]     c2        359
    x[16]     OBJ       -490
    x[17]     c1        641
    x[17]     c2        948
    x[17]     OBJ       -354
    x[18]     c1        115
    x[18]     c2        759
    x[18]     OBJ       -250
    x[19]     c1        168
    x[19]     c2        492
    x[19]     OBJ       -435
    x[20]     c1        554
    x[20]     c2        649
    x[20]     OBJ       -496
RHS
    rhs       c1        6134
    rhs       c2        5558
RANGES
BOUNDS
 BV bounds    x[1]
 BV bounds    x[2]
 BV bounds    x[3]
 BV bounds    x[4]
 BV bounds    x[5]
 BV bounds    x[6]
 BV bounds    x[7]
 BV bounds    x[8]
 BV bounds    x[9]
 BV bounds    x[10]
 BV bounds    x[11]
 BV bounds    x[12]
 BV bounds    x[13]
 BV bounds    x[14]
 BV bounds    x[15]
 BV bounds    x[16]
 BV bounds    x[17]
 BV bounds    x[18]
 BV bounds    x[19]
 BV bounds    x[20]
ENDATA
